(set-logic ALL)
(declare-const input_number_VAR Int)
(assert (not (< input_number_VAR 0)))
(assert (< 1 input_number_VAR))
(assert (< 2 input_number_VAR))
(assert (< 3 input_number_VAR))
(assert (< 4 input_number_VAR))
(assert (< 5 input_number_VAR))
(assert (< 6 input_number_VAR))
(assert (< 7 input_number_VAR))
(assert (< 8 input_number_VAR))
(assert (< 9 input_number_VAR))
(assert (< 10 input_number_VAR))
(assert (< 11 input_number_VAR))
(assert (< 12 input_number_VAR))
(assert (< 13 input_number_VAR))
(assert (< 14 input_number_VAR))
(assert (< 15 input_number_VAR))
(assert (< 16 input_number_VAR))
(assert (< 17 input_number_VAR))
(assert (< 18 input_number_VAR))
(assert (< 19 input_number_VAR))
(assert (< 20 input_number_VAR))
(assert (< 21 input_number_VAR))
(assert (< 22 input_number_VAR))
(assert (< 23 input_number_VAR))
(assert (< 24 input_number_VAR))
(assert (< 25 input_number_VAR))
(assert (< 26 input_number_VAR))
(check-sat)
(get-value (input_number_VAR))
